p cnf 7 358
-2321255783698587796 2321255783698587796
 2321255783698587796
-2321255783698587796 2321255783698587796 0
 2321255783698587796

-2321255783698587796 2321255783698587796 0
 2321255783698587796 0


-2321255783698587796 2321255783698587796


 2321255783698587796
-2321255783698587796 2321255783698587796
 2321255783698587796
 2321255783698587796 0
 2321255783698587796
-2321255783698587796 2321255783698587796 0

 2321255783698587796 0
 2321255783698587796 0


-2321255783698587796 2321255783698587796 0
 2321255783698587796
-2321255783698587796 2321255783698587796
 2321255783698587796 0


 2321255783698587796 0


-2321255783698587796 2321255783698587796 0

 2321255783698587796
 2321255783698587796 0
 2321255783698587796 0
-2321255783698587796 2321255783698587796
 2321255783698587796
 2321255783698587796 0
 2321255783698587796 0
 2321255783698587796 0



 2321255783698587796 0

-2321255783698587796 2321255783698587796 0
-2321255783698587796 2321255783698587796 0
 2321255783698587796
 2321255783698587796 0

-2321255783698587796 2321255783698587796
-2321255783698587796 2321255783698587796

-2321255783698587796 2321255783698587796

 2321255783698587796
 2321255783698587796 0
-2321255783698587796 2321255783698587796 0
-2321255783698587796 2321255783698587796 0


-2321255783698587796 2321255783698587796

 2321255783698587796


-2321255783698587796 2321255783698587796 0
-2321255783698587796 2321255783698587796 0
-2321255783698587796 2321255783698587796 0

 2321255783698587796
 2321255783698587796 0

 2321255783698587796 0
-2321255783698587796 2321255783698587796 0



-2321255783698587796 2321255783698587796



-2321255783698587796 2321255783698587796

 2321255783698587796 0

-2321255783698587796 2321255783698587796

 2321255783698587796 0

-2321255783698587796 2321255783698587796
-2321255783698587796 2321255783698587796 0
-2321255783698587796 2321255783698587796
 2321255783698587796
-2321255783698587796 2321255783698587796 0
 2321255783698587796 0

 2321255783698587796 0
-2321255783698587796 2321255783698587796

 2321255783698587796

 2321255783698587796
-2321255783698587796 2321255783698587796
 2321255783698587796 0
-2321255783698587796 2321255783698587796 0
 2321255783698587796


-2321255783698587796 2321255783698587796


-2321255783698587796 2321255783698587796 0
 2321255783698587796 0

-2321255783698587796 2321255783698587796 0
-2321255783698587796 2321255783698587796
-2321255783698587796 2321255783698587796 0
-2321255783698587796 2321255783698587796 0

 2321255783698587796
 2321255783698587796 0

-2321255783698587796 2321255783698587796

-2321255783698587796 2321255783698587796
-2321255783698587796 2321255783698587796 0
-2321255783698587796 2321255783698587796 0
-2321255783698587796 2321255783698587796 0

 2321255783698587796 0
 2321255783698587796
-2321255783698587796 2321255783698587796
 2321255783698587796
-2321255783698587796 2321255783698587796
 2321255783698587796 0
 2321255783698587796

-2321255783698587796 2321255783698587796 0
 2321255783698587796

 2321255783698587796 0

 2321255783698587796
 2321255783698587796 0
